22      4       
14      13      14      13      
0       0       0       0       0       4       2       3       4       5       
4       4       3       4       5       1       21      
1       1       3       6       7       1       6       
8       6       1       1       0       1       7       
7       7       8       0       4       1       12      
8       0       6       0       2       1       8       
3       7       4       6       0       1       9       
2       6       0       6       0       1       10      
8       2       7       0       0       1       11      
7       10      2       2       7       2       12      17      
5       0       0       10      1       1       13      
8       7       8       2       0       1       14      
3       2       0       0       5       1       15      
1       0       4       7       0       1       19      
6       10      9       9       2       1       16      
6       5       10      5       9       1       17      
4       10      0       8       7       1       18      
5       2       5       1       3       1       19      
8       9       2       7       1       1       20      
9       3       2       9       0       1       22      
7       0       0       6       10      1       22      
0       0       0       0       0       0       
